
Gurobi 11.0.3 (linux64) logging started Mon 18 Nov 2024 09:47:52 PM CST

Set parameter LogFile to value "/home/dlcole3/graph_abstraction/hierarchical_graphs/git_storage/CS1/HP_low_reserves/gurobi_logs/serial/logfile_ST13_3.log"

Gurobi 11.0.3 (linux64) logging started Mon 18 Nov 2024 09:49:09 PM CST

Set parameter LogFile to value "/home/dlcole3/graph_abstraction/hierarchical_graphs/git_storage/CS1/HP_low_reserves/gurobi_logs/serial/logfile_ST13_3.log"
Gurobi Optimizer version 11.0.3 build v11.0.3rc0 (linux64 - "Ubuntu 18.04.3 LTS")

CPU model: Intel(R) Xeon(R) CPU E5-2698 v4 @ 2.20GHz, instruction set [SSE2|AVX|AVX2]
Thread count: 40 physical cores, 80 logical processors, using up to 20 threads

Optimize a model with 29168 rows, 50688 columns and 136175 nonzeros
Model fingerprint: 0x88a91430
Variable types: 46944 continuous, 3744 integer (3744 binary)
Coefficient statistics:
  Matrix range     [6e-01, 2e+04]
  Objective range  [2e+00, 2e+04]
  Bounds range     [5e-02, 2e+05]
  RHS range        [5e-02, 7e+03]
Presolve removed 14500 rows and 38934 columns
Presolve time: 0.36s
Presolved: 14668 rows, 11754 columns, 62432 nonzeros
Variable types: 8770 continuous, 2984 integer (2984 binary)
Found heuristic solution: objective 172544.85783
Found heuristic solution: objective 163558.92479
Found heuristic solution: objective 136419.84583

Root relaxation: objective 2.391832e+04, 7159 iterations, 0.28 seconds (0.20 work units)

    Nodes    |    Current Node    |     Objective Bounds      |     Work
 Expl Unexpl |  Obj  Depth IntInf | Incumbent    BestBd   Gap | It/Node Time

     0     0 23918.3245    0    5 136419.846 23918.3245  82.5%     -    1s
H    0     0                    63632.504581 23918.3245  62.4%     -    1s
H    0     0                    63632.504328 23918.3245  62.4%     -    1s
     0     0 23918.3245    0    5 63632.5043 23918.3245  62.4%     -    1s
     0     2 23918.3245    0    5 63632.5043 23918.3245  62.4%     -    1s
*   13    14               3    25459.519993 23918.3671  6.05%  22.8    1s
H   29    38                    25459.519423 23919.2045  6.05%  23.3    2s
H   32    38                    25227.180268 23919.2045  5.18%  23.6    2s
H   38    38                    25227.142217 24097.2447  4.48%  26.1    2s
H   45    38                    24330.792364 24097.2447  0.96%  24.0    2s
H  110    68                    24305.491053 24097.2447  0.86%  11.1    2s
H  112    68                    24303.616327 24097.2447  0.85%  11.0    2s
H  124    68                    24303.577079 24097.2447  0.85%  10.1    2s
*  234   122              16    24303.235113 24097.2447  0.85%   6.2    2s
*  251   122              16    24303.195864 24097.2447  0.85%   6.4    2s

Explored 413 nodes (9512 simplex iterations) in 2.57 seconds (1.64 work units)
Thread count was 20 (of 80 available processors)

Solution count 10: 24303.2 24303.2 24305.5 ... 163559

Optimal solution found (tolerance 3.00e-03)
Best objective 2.430319586416e+04, best bound 2.428580095357e+04, gap 0.0716%

User-callback calls 2306, time in user-callback 0.00 sec
